c turning on binary mode checking
c parsing input formula with 202048 variables and 780985 clauses
c finished parsing, read 19201982 bytes from proof file
c detected empty clause; start verification via backward checking
c 18832 of 780985 clauses in core                            
c 27702 of 505865 lemmas in core using 224831 resolution steps
c 0 RAT lemmas in core; 1802 redundant literals in core lemmas
s VERIFIED
c verification time: 2.567 seconds
